NAME : eil76
COMMENT : Optimum tour for eil76 (538)
TYPE : TOUR
DIMENSION : 76
TOUR_SECTION
41
42
40
55
22
48
23
17
49
24
54
30
9
37
64
65
10
58
13
52
34
6
7
18
53
12
56
14
4
36
19
69
59
70
68
35
46
20
60
27
73
1
29
47
28
44
26
51
33
45
66
25
75
74
3
67
5
50
16
39
11
57
71
38
8
31
43
2
15
62
32
72
0
61
21
63
-1
EOF